469,194
708,353
707,419
850,237
755,178
681,256
708,353
685,435
639,448
584,476
628,433
533,383
361,243
469,194
681,256
1101,406
861,406
1214,322
871,780
945,770
776,593
639,672
776,593
663,524
196,563
425,489
663,524
584,476
533,383
326,462
385,702
685,435
